50
    21    48    77    59    95    36    66    27    40    85    81    46    66    55    40    46    20    70    48    71    92    19     2    81    11    58    90    53    48     8    90    77    14    56    70    61    60    55    91    28    79    23     3    16     4    43    45    78     8    64
     4     5     3     3     5     9     9     2     6     6     8    10     6     7     1    10     8     4    10     7     8     5    10     4     2     1     8     6     9     1     4     3     1     4     7     2     2    10     2     1     7     6     5     6     5     2     3     6     5     4
  1002  1102  1718   877   101  1808    30    76   787  1408   450   124  1018   674   737  1815   512  1854  1821  1585   798   794   300  1292   242   238   109   834   165  1953   976  1871  1872  1864  2017   447   668   342   290   799  1051  1377   437  1927   637   666  1130  1314  1314   929
